************************************************************************
file with basedata            : md355_.bas
initial value random generator: 1284041566
************************************************************************
projects                      :  1
jobs (incl. supersource/sink ):  22
horizon                       :  171
RESOURCES
  - renewable                 :  2   R
  - nonrenewable              :  2   N
  - doubly constrained        :  0   D
************************************************************************
PROJECT INFORMATION:
pronr.  #jobs rel.date duedate tardcost  MPM-Time
    1     20      0       17        3       17
************************************************************************
PRECEDENCE RELATIONS:
jobnr.    #modes  #successors   successors
   1        1          3           2   3   4
   2        3          3           5  13  15
   3        3          3          10  11  21
   4        3          3           6  11  12
   5        3          3          10  14  17
   6        3          3           7   8  20
   7        3          3           9  17  19
   8        3          2          10  15
   9        3          1          13
  10        3          1          18
  11        3          2          16  20
  12        3          3          13  14  18
  13        3          1          21
  14        3          2          19  20
  15        3          1          17
  16        3          1          18
  17        3          1          21
  18        3          1          19
  19        3          1          22
  20        3          1          22
  21        3          1          22
  22        1          0        
************************************************************************
REQUESTS/DURATIONS:
jobnr. mode duration  R 1  R 2  N 1  N 2
------------------------------------------------------------------------
  1      1     0       0    0    0    0
  2      1     2       9    0    6    2
         2     8       8    0    6    2
         3     9       8    0    5    2
  3      1     4       7    0    5    5
         2     8       0    9    3    4
         3    10       4    0    2    4
  4      1     1       7    0    8    9
         2     2       3    0    5    8
         3     8       0    6    4    8
  5      1     1       8    0    7    7
         2     4       6    0    4    7
         3     5       0    9    3    5
  6      1     2       0    5    4    7
         2     8       2    0    2    5
         3     8       1    0    2    6
  7      1     4       8    0    8    9
         2     7       0    5    7    7
         3    10       7    0    6    7
  8      1     5       0    4    7    5
         2     6       4    0    6    5
         3    10       0    4    5    5
  9      1     5      10    0    6    7
         2     8       9    0    6    6
         3    10       9    0    5    5
 10      1     2       0    3    7    7
         2     6       7    0    5    7
         3     9       0    3    3    6
 11      1     1       6    0    6    8
         2     2       6    0    3    8
         3    10       0    5    2    6
 12      1     8       6    0   10    6
         2     8       0    9   10    7
         3     9       0    8    9    5
 13      1     2      10    0   10    6
         2     7       8    0    9    6
         3     8       7    0    8    5
 14      1     4       0    5    4    6
         2     4       2    0    4    6
         3    10       0    4    4    3
 15      1     4       0    6    9   10
         2     9       6    0    9    6
         3    10       0    4    8    4
 16      1     2       3    0    3    8
         2     4       0    4    2    8
         3     6       0    3    2    7
 17      1     1       3    0    5    6
         2     5       3    0    4    6
         3     8       2    0    3    5
 18      1     3       0    6    7    4
         2     4       0    5    7    3
         3     8       8    0    4    2
 19      1     4       0    8    4    7
         2     5       0    3    3    7
         3     9       4    0    1    6
 20      1     3       4    0   10   10
         2     4       4    0   10    9
         3     6       3    0    9    9
 21      1     1       7    0    4    5
         2     2       7    0    4    3
         3     8       0    6    3    3
 22      1     0       0    0    0    0
************************************************************************
RESOURCEAVAILABILITIES:
  R 1  R 2  N 1  N 2
   23   21   99  110
************************************************************************
MAXIMAL LAGS:
from  to  type  delay
    1   12   ES      0
    1    2   ES      0
    2   12   ES      0
    1    3   ES      0
    3   12   ES      0
    1    4   ES      0
    4   12   ES      0
    1    5   ES      0
    5   12   ES      0
    1    6   ES      0
    6   12   ES      0
    1    7   ES      0
    7   12   ES      0
    1    8   ES      0
    8   12   ES      0
    1    9   ES      0
    9   12   ES      0
    1   10   ES      0
   10   12   ES      0
    1   11   ES      0
   11   12   ES      0
    1   12   ES      0
    2    5   SS    -12
    2    5   SE     -7
    2    5   ES     10
    2    5   EE      6
    2   13   SS      8
    2   13   SE     -2
    2   13   ES      1
    2   13   EE     -9
    2   15   SS      0
    2   15   SE     -8
    2   15   ES     -7
    2   15   EE     -2
    3   10   SS      0
    3   10   SE     10
    3   10   ES     10
    3   10   EE      9
    3   11   SS     -4
    3   11   SE     10
    3   11   ES      3
    3   11   EE    -10
    3   21   SS      4
    3   21   SE     11
    3   21   ES     -1
    3   21   EE     -1
    4    6   SS      7
    4    6   SE     -3
    4    6   ES    -12
    4    6   EE     11
    4   11   SS      2
    4   11   SE      6
    4   11   ES      7
    4   11   EE     -8
    5   10   SS     -5
    5   10   SE    -12
    5   10   ES     -3
    5   10   EE     12
    5   14   SS     -1
    5   14   SE     11
    5   14   ES     -6
    5   14   EE     -8
    5   17   SS     11
    5   17   SE     -5
    5   17   ES    -10
    5   17   EE      0
    6    7   SS      8
    6    7   SE      8
    6    7   ES      2
    6    7   EE      2
    6    8   SS      5
    6    8   SE     12
    6    8   ES    -10
    6    8   EE     -3
    6   20   SS     -2
    6   20   SE      0
    6   20   ES     -3
    6   20   EE      2
    7    9   SS     11
    7    9   SE     -3
    7    9   ES     -5
    7    9   EE      2
    7   17   SS    -12
    7   17   SE     11
    7   17   ES     -9
    7   17   EE      7
    7   19   SS     -3
    7   19   SE     12
    7   19   ES     -1
    7   19   EE     -6
    8   10   SS      9
    8   10   SE      7
    8   10   ES     10
    8   10   EE     -9
    8   15   SS    -10
    8   15   SE      9
    8   15   ES      2
    8   15   EE      3
    9   13   SS      1
    9   13   SE      1
    9   13   ES     10
    9   13   EE      1
   10   18   SS     -2
   10   18   SE    -11
   10   18   ES     -1
   10   18   EE     -7
   11   16   SS      9
   11   16   SE      3
   11   16   ES      8
   11   16   EE     12
   11   20   SS      1
   11   20   SE    -10
   11   20   ES     -8
   11   20   EE    -12
   12   13   SS      6
   12   13   SE     -7
   12   13   ES      5
   12   13   EE    -10
   12   14   SS     10
   12   14   SE      8
   12   14   ES     -2
   12   14   EE      3
   12   18   SS      5
   12   18   SE    -11
   12   18   ES      1
   12   18   EE      9
   13   21   SS    -10
   13   21   SE     11
   13   21   ES      7
   13   21   EE    -11
   14   19   SS     -8
   14   19   SE     -8
   14   19   ES     -5
   14   19   EE    -10
   14   20   SS      9
   14   20   SE     -9
   20   14   SE      0
   14   20   ES      0
   14   20   EE      3
   15   17   SS      8
   15   17   SE      5
   15   17   ES      9
   15   17   EE      2
   16   18   SS    -12
   16   18   SE      0
   16   18   ES      8
   16   18   EE      3
   17   21   SS      8
   17   21   SE      1
   17   21   ES     -6
   17   21   EE     -2
   18   19   SS     -5
   18   19   SE     -8
   18   19   ES     -8
   18   19   EE     -6
   19   22   SS      9
   19   22   SE      3
   19   22   ES     -9
   19   22   EE      5
   20   22   SS     -1
   20   22   SE      6
   20   22   ES     -8
   20   22   EE    -10
   21   22   SS     -8
   21   22   SE      0
   21   22   ES      8
   21   22   EE      4
************************************************************************
